p cnf 324 1
324 0
w 1 0.47067
w 2 1 0
w 2 -1 1
w 3 2 1
w 3 -2 0
w 4 3 1
w 4 -3 0
w 5 4 0
w 5 -4 1
w 6 5 0.904672
w 6 -5 0.326624
w 7 6 0
w 7 -6 1
w 8 7 0.426277
w 8 -7 0.131064
w 9 8 1
w 9 -8 0
w 10 9 0.383819
w 10 -9 0.541557
w 11 10 0.350672
w 11 -10 0.698664
w 12 11 0.576009
w 12 -11 0.815762
w 13 12 0.769337
w 13 -12 0.740162
w 14 13 1
w 14 -13 0
w 15 14 0.651129
w 15 -14 0.0494697
w 16 15 0.269601
w 16 -15 0.059516
w 17 16 0.0809242
w 17 -16 0.964188
w 18 17 0.10989
w 18 -17 0.538252
w 19 1 0.536167
w 19 -1 0.669316
w 20 19 2 0.56084
w 20 19 -2 0.487698
w 20 -19 2 0.0633729
w 20 -19 -2 0.102397
w 21 20 3 1
w 21 20 -3 1
w 21 -20 3 0
w 21 -20 -3 1
w 22 21 4 0.542016
w 22 21 -4 0.759392
w 22 -21 4 0.356985
w 22 -21 -4 0.881253
w 23 22 5 0.0743151
w 23 22 -5 0.532383
w 23 -22 5 0.796924
w 23 -22 -5 0.950283
w 24 23 6 0.85644
w 24 23 -6 0.598525
w 24 -23 6 0.882908
w 24 -23 -6 0.820628
w 25 24 7 0.992798
w 25 24 -7 0.35888
w 25 -24 7 0.137028
w 25 -24 -7 0.528965
w 26 25 8 1
w 26 25 -8 1
w 26 -25 8 1
w 26 -25 -8 0
w 27 26 9 1
w 27 26 -9 1
w 27 -26 9 0
w 27 -26 -9 1
w 28 27 10 1
w 28 27 -10 1
w 28 -27 10 0
w 28 -27 -10 0
w 29 28 11 0.790902
w 29 28 -11 0.0413874
w 29 -28 11 0.208615
w 29 -28 -11 0.587826
w 30 29 12 0.0105988
w 30 29 -12 0.444266
w 30 -29 12 0.590195
w 30 -29 -12 0.893507
w 31 30 13 0
w 31 30 -13 1
w 31 -30 13 0
w 31 -30 -13 0
w 32 31 14 1
w 32 31 -14 1
w 32 -31 14 1
w 32 -31 -14 0
w 33 32 15 0.747377
w 33 32 -15 0.291152
w 33 -32 15 0.690541
w 33 -32 -15 0.000339109
w 34 33 16 0.300628
w 34 33 -16 0.795318
w 34 -33 16 0.618654
w 34 -33 -16 0.2677
w 35 34 17 0
w 35 34 -17 1
w 35 -34 17 1
w 35 -34 -17 0
w 36 35 18 0
w 36 35 -18 1
w 36 -35 18 1
w 36 -35 -18 1
w 37 19 0.0545385
w 37 -19 0.470575
w 38 37 20 0
w 38 37 -20 0
w 38 -37 20 1
w 38 -37 -20 0
w 39 38 21 0
w 39 38 -21 1
w 39 -38 21 0
w 39 -38 -21 0
w 40 39 22 0.778736
w 40 39 -22 0.897865
w 40 -39 22 0.335859
w 40 -39 -22 0.079364
w 41 40 23 0.954513
w 41 40 -23 0.347064
w 41 -40 23 0.164733
w 41 -40 -23 0.364069
w 42 41 24 0.844898
w 42 41 -24 0.361451
w 42 -41 24 0.956909
w 42 -41 -24 0.535663
w 43 42 25 0.847862
w 43 42 -25 0.119933
w 43 -42 25 0.509642
w 43 -42 -25 0.9024
w 44 43 26 0.839959
w 44 43 -26 0.257553
w 44 -43 26 0.476353
w 44 -43 -26 0.822245
w 45 44 27 0.867272
w 45 44 -27 0.972394
w 45 -44 27 0.199401
w 45 -44 -27 0.955468
w 46 45 28 0.960053
w 46 45 -28 0.734204
w 46 -45 28 0.767784
w 46 -45 -28 0.295911
w 47 46 29 0.460967
w 47 46 -29 0.250425
w 47 -46 29 0.160632
w 47 -46 -29 0.6257
w 48 47 30 0.816783
w 48 47 -30 0.470599
w 48 -47 30 0.975945
w 48 -47 -30 0.773692
w 49 48 31 1
w 49 48 -31 0
w 49 -48 31 1
w 49 -48 -31 1
w 50 49 32 0.128646
w 50 49 -32 0.781507
w 50 -49 32 0.193056
w 50 -49 -32 0.950891
w 51 50 33 0.0603281
w 51 50 -33 0.923285
w 51 -50 33 0.710809
w 51 -50 -33 0.015796
w 52 51 34 0.670862
w 52 51 -34 0.75
w 52 -51 34 0.560989
w 52 -51 -34 0.966774
w 53 52 35 0.0219559
w 53 52 -35 0.217198
w 53 -52 35 0.724201
w 53 -52 -35 0.647656
w 54 53 36 0.540984
w 54 53 -36 0.118255
w 54 -53 36 0.807638
w 54 -53 -36 0.314676
w 55 37 0
w 55 -37 1
w 56 55 38 0.25071
w 56 55 -38 0.87537
w 56 -55 38 0.460184
w 56 -55 -38 0.967413
w 57 56 39 0
w 57 56 -39 1
w 57 -56 39 1
w 57 -56 -39 1
w 58 57 40 0.463909
w 58 57 -40 0.236593
w 58 -57 40 0.671395
w 58 -57 -40 0.134771
w 59 58 41 0.232384
w 59 58 -41 0.101545
w 59 -58 41 0.550162
w 59 -58 -41 0.254339
w 60 59 42 0
w 60 59 -42 1
w 60 -59 42 1
w 60 -59 -42 1
w 61 60 43 0
w 61 60 -43 1
w 61 -60 43 0
w 61 -60 -43 0
w 62 61 44 0
w 62 61 -44 1
w 62 -61 44 0
w 62 -61 -44 0
w 63 62 45 0
w 63 62 -45 0
w 63 -62 45 1
w 63 -62 -45 1
w 64 63 46 0.257237
w 64 63 -46 0.985139
w 64 -63 46 0.980749
w 64 -63 -46 0.928632
w 65 64 47 0
w 65 64 -47 1
w 65 -64 47 1
w 65 -64 -47 0
w 66 65 48 1
w 66 65 -48 0
w 66 -65 48 1
w 66 -65 -48 1
w 67 66 49 0.3376
w 67 66 -49 0.648705
w 67 -66 49 0.73724
w 67 -66 -49 0.482366
w 68 67 50 1
w 68 67 -50 0
w 68 -67 50 0
w 68 -67 -50 0
w 69 68 51 0
w 69 68 -51 0
w 69 -68 51 1
w 69 -68 -51 0
w 70 69 52 0.674009
w 70 69 -52 0.604429
w 70 -69 52 0.488994
w 70 -69 -52 0.602641
w 71 70 53 0.456337
w 71 70 -53 0.763656
w 71 -70 53 0.945794
w 71 -70 -53 0.973841
w 72 71 54 0
w 72 71 -54 1
w 72 -71 54 1
w 72 -71 -54 1
w 73 55 0
w 73 -55 1
w 74 73 56 0.110165
w 74 73 -56 0.316328
w 74 -73 56 0.0187903
w 74 -73 -56 0.913658
w 75 74 57 1
w 75 74 -57 1
w 75 -74 57 0
w 75 -74 -57 1
w 76 75 58 0
w 76 75 -58 0
w 76 -75 58 0
w 76 -75 -58 1
w 77 76 59 0.565371
w 77 76 -59 0.196231
w 77 -76 59 0.363523
w 77 -76 -59 0.28971
w 78 77 60 0.127179
w 78 77 -60 0.235504
w 78 -77 60 0.626409
w 78 -77 -60 0.306189
w 79 78 61 0.392119
w 79 78 -61 0.80255
w 79 -78 61 0.89812
w 79 -78 -61 0.765044
w 80 79 62 0.72345
w 80 79 -62 0.875209
w 80 -79 62 0.952839
w 80 -79 -62 0.74224
w 81 80 63 0.14701
w 81 80 -63 0.374616
w 81 -80 63 0.0324576
w 81 -80 -63 0.581911
w 82 81 64 1
w 82 81 -64 0
w 82 -81 64 1
w 82 -81 -64 1
w 83 82 65 0
w 83 82 -65 0
w 83 -82 65 0
w 83 -82 -65 1
w 84 83 66 1
w 84 83 -66 1
w 84 -83 66 1
w 84 -83 -66 0
w 85 84 67 0.14713
w 85 84 -67 0.355466
w 85 -84 67 0.491914
w 85 -84 -67 0.0452505
w 86 85 68 1
w 86 85 -68 0
w 86 -85 68 0
w 86 -85 -68 1
w 87 86 69 0.784587
w 87 86 -69 0.228275
w 87 -86 69 0.885557
w 87 -86 -69 0.817045
w 88 87 70 0.930274
w 88 87 -70 0.191153
w 88 -87 70 0.591089
w 88 -87 -70 0.0618651
w 89 88 71 0.0792287
w 89 88 -71 0.954338
w 89 -88 71 0.426624
w 89 -88 -71 0.763599
w 90 89 72 1
w 90 89 -72 1
w 90 -89 72 1
w 90 -89 -72 0
w 91 73 0
w 91 -73 1
w 92 91 74 1
w 92 91 -74 1
w 92 -91 74 0
w 92 -91 -74 1
w 93 92 75 1
w 93 92 -75 0
w 93 -92 75 1
w 93 -92 -75 0
w 94 93 76 1
w 94 93 -76 1
w 94 -93 76 0
w 94 -93 -76 1
w 95 94 77 0.392107
w 95 94 -77 0.854568
w 95 -94 77 0.693258
w 95 -94 -77 0.346445
w 96 95 78 0
w 96 95 -78 1
w 96 -95 78 0
w 96 -95 -78 1
w 97 96 79 1
w 97 96 -79 1
w 97 -96 79 0
w 97 -96 -79 0
w 98 97 80 1
w 98 97 -80 1
w 98 -97 80 1
w 98 -97 -80 0
w 99 98 81 0
w 99 98 -81 0
w 99 -98 81 1
w 99 -98 -81 1
w 100 99 82 0
w 100 99 -82 0
w 100 -99 82 0
w 100 -99 -82 1
w 101 100 83 0.945361
w 101 100 -83 0.00482129
w 101 -100 83 0.756378
w 101 -100 -83 0.638619
w 102 101 84 1
w 102 101 -84 0
w 102 -101 84 0
w 102 -101 -84 1
w 103 102 85 0.0583336
w 103 102 -85 0.87585
w 103 -102 85 0.274148
w 103 -102 -85 0.491494
w 104 103 86 1
w 104 103 -86 0
w 104 -103 86 0
w 104 -103 -86 1
w 105 104 87 0.738422
w 105 104 -87 0.0113324
w 105 -104 87 0.906243
w 105 -104 -87 0.620927
w 106 105 88 1
w 106 105 -88 0
w 106 -105 88 0
w 106 -105 -88 0
w 107 106 89 0.922821
w 107 106 -89 0.49133
w 107 -106 89 0.520935
w 107 -106 -89 0.679199
w 108 107 90 1
w 108 107 -90 1
w 108 -107 90 1
w 108 -107 -90 0
w 109 91 0.83858
w 109 -91 0.528133
w 110 109 92 1
w 110 109 -92 0
w 110 -109 92 0
w 110 -109 -92 1
w 111 110 93 0.362485
w 111 110 -93 0.84012
w 111 -110 93 0.642586
w 111 -110 -93 0.373817
w 112 111 94 0.263513
w 112 111 -94 0.821383
w 112 -111 94 0.960998
w 112 -111 -94 0.166912
w 113 112 95 0.506967
w 113 112 -95 0.683025
w 113 -112 95 0.765216
w 113 -112 -95 0.998296
w 114 113 96 1
w 114 113 -96 1
w 114 -113 96 0
w 114 -113 -96 0
w 115 114 97 0
w 115 114 -97 1
w 115 -114 97 0
w 115 -114 -97 0
w 116 115 98 0
w 116 115 -98 1
w 116 -115 98 1
w 116 -115 -98 1
w 117 116 99 0.214111
w 117 116 -99 0.894701
w 117 -116 99 0.422184
w 117 -116 -99 0.587928
w 118 117 100 0.685697
w 118 117 -100 0.409311
w 118 -117 100 0.602062
w 118 -117 -100 0.852609
w 119 118 101 0
w 119 118 -101 1
w 119 -118 101 1
w 119 -118 -101 1
w 120 119 102 1
w 120 119 -102 1
w 120 -119 102 1
w 120 -119 -102 0
w 121 120 103 0.435983
w 121 120 -103 0.821203
w 121 -120 103 0.367154
w 121 -120 -103 0.77758
w 122 121 104 0
w 122 121 -104 1
w 122 -121 104 0
w 122 -121 -104 0
w 123 122 105 1
w 123 122 -105 0
w 123 -122 105 1
w 123 -122 -105 0
w 124 123 106 0.268585
w 124 123 -106 0.584627
w 124 -123 106 0.393102
w 124 -123 -106 0.520291
w 125 124 107 0.928737
w 125 124 -107 0.537213
w 125 -124 107 0.800982
w 125 -124 -107 0.668331
w 126 125 108 0.0365521
w 126 125 -108 0.484088
w 126 -125 108 0.621066
w 126 -125 -108 0.625792
w 127 109 1
w 127 -109 0
w 128 127 110 0
w 128 127 -110 0
w 128 -127 110 0
w 128 -127 -110 1
w 129 128 111 0.362424
w 129 128 -111 0.920257
w 129 -128 111 0.981187
w 129 -128 -111 0.703924
w 130 129 112 0.840461
w 130 129 -112 0.686488
w 130 -129 112 0.315547
w 130 -129 -112 0.109046
w 131 130 113 0
w 131 130 -113 0
w 131 -130 113 1
w 131 -130 -113 1
w 132 131 114 0
w 132 131 -114 1
w 132 -131 114 1
w 132 -131 -114 1
w 133 132 115 0.786166
w 133 132 -115 0.428097
w 133 -132 115 0.946058
w 133 -132 -115 0.843215
w 134 133 116 0.469465
w 134 133 -116 0.677844
w 134 -133 116 0.527697
w 134 -133 -116 0.38509
w 135 134 117 0
w 135 134 -117 1
w 135 -134 117 0
w 135 -134 -117 1
w 136 135 118 1
w 136 135 -118 0
w 136 -135 118 1
w 136 -135 -118 0
w 137 136 119 0
w 137 136 -119 0
w 137 -136 119 1
w 137 -136 -119 1
w 138 137 120 0.96412
w 138 137 -120 0.139566
w 138 -137 120 0.828099
w 138 -137 -120 0.129219
w 139 138 121 0.617905
w 139 138 -121 0.915385
w 139 -138 121 0.369967
w 139 -138 -121 0.563963
w 140 139 122 0.245059
w 140 139 -122 0.0334282
w 140 -139 122 0.436444
w 140 -139 -122 0.772756
w 141 140 123 1
w 141 140 -123 1
w 141 -140 123 0
w 141 -140 -123 1
w 142 141 124 1
w 142 141 -124 0
w 142 -141 124 1
w 142 -141 -124 0
w 143 142 125 0.456434
w 143 142 -125 0.16444
w 143 -142 125 0.609815
w 143 -142 -125 0.254003
w 144 143 126 0.132196
w 144 143 -126 0.218123
w 144 -143 126 0.67782
w 144 -143 -126 0.960296
w 145 127 1
w 145 -127 0
w 146 145 128 0.262727
w 146 145 -128 0.989658
w 146 -145 128 0.142164
w 146 -145 -128 0.0213269
w 147 146 129 1
w 147 146 -129 1
w 147 -146 129 1
w 147 -146 -129 0
w 148 147 130 0
w 148 147 -130 0
w 148 -147 130 1
w 148 -147 -130 1
w 149 148 131 0
w 149 148 -131 0
w 149 -148 131 1
w 149 -148 -131 0
w 150 149 132 0.297453
w 150 149 -132 0.630487
w 150 -149 132 0.245422
w 150 -149 -132 0.835706
w 151 150 133 0.463545
w 151 150 -133 0.513526
w 151 -150 133 0.72298
w 151 -150 -133 0.810888
w 152 151 134 1
w 152 151 -134 1
w 152 -151 134 0
w 152 -151 -134 1
w 153 152 135 0
w 153 152 -135 0
w 153 -152 135 0
w 153 -152 -135 1
w 154 153 136 0
w 154 153 -136 1
w 154 -153 136 0
w 154 -153 -136 1
w 155 154 137 0.350804
w 155 154 -137 0.655647
w 155 -154 137 0.164596
w 155 -154 -137 0.483816
w 156 155 138 0.156015
w 156 155 -138 0.781269
w 156 -155 138 0.306806
w 156 -155 -138 0.401437
w 157 156 139 0.0694902
w 157 156 -139 0.864982
w 157 -156 139 0.130501
w 157 -156 -139 0.79247
w 158 157 140 0.263717
w 158 157 -140 0.0936504
w 158 -157 140 0.749485
w 158 -157 -140 0.38659
w 159 158 141 0.844427
w 159 158 -141 0.744181
w 159 -158 141 0.155931
w 159 -158 -141 0.39714
w 160 159 142 0
w 160 159 -142 1
w 160 -159 142 0
w 160 -159 -142 0
w 161 160 143 1
w 161 160 -143 1
w 161 -160 143 0
w 161 -160 -143 0
w 162 161 144 0
w 162 161 -144 0
w 162 -161 144 1
w 162 -161 -144 0
w 163 145 0.0776106
w 163 -145 0.708712
w 164 163 146 0.870081
w 164 163 -146 0.384582
w 164 -163 146 0.969249
w 164 -163 -146 0.963731
w 165 164 147 1
w 165 164 -147 0
w 165 -164 147 0
w 165 -164 -147 1
w 166 165 148 0.375634
w 166 165 -148 0.209263
w 166 -165 148 0.0256351
w 166 -165 -148 0.385188
w 167 166 149 0.367803
w 167 166 -149 0.754537
w 167 -166 149 0.823018
w 167 -166 -149 0.0607746
w 168 167 150 0.109296
w 168 167 -150 0.237562
w 168 -167 150 0.480846
w 168 -167 -150 0.55159
w 169 168 151 1
w 169 168 -151 0
w 169 -168 151 1
w 169 -168 -151 1
w 170 169 152 0
w 170 169 -152 0
w 170 -169 152 1
w 170 -169 -152 0
w 171 170 153 0
w 171 170 -153 1
w 171 -170 153 0
w 171 -170 -153 1
w 172 171 154 0.557771
w 172 171 -154 0.97681
w 172 -171 154 0.110555
w 172 -171 -154 0.583406
w 173 172 155 1
w 173 172 -155 1
w 173 -172 155 1
w 173 -172 -155 0
w 174 173 156 0
w 174 173 -156 1
w 174 -173 156 1
w 174 -173 -156 1
w 175 174 157 1
w 175 174 -157 1
w 175 -174 157 0
w 175 -174 -157 0
w 176 175 158 1
w 176 175 -158 0
w 176 -175 158 0
w 176 -175 -158 1
w 177 176 159 0
w 177 176 -159 1
w 177 -176 159 1
w 177 -176 -159 1
w 178 177 160 0.839993
w 178 177 -160 0.728387
w 178 -177 160 0.484428
w 178 -177 -160 0.950548
w 179 178 161 0
w 179 178 -161 1
w 179 -178 161 0
w 179 -178 -161 1
w 180 179 162 1
w 180 179 -162 1
w 180 -179 162 0
w 180 -179 -162 0
w 181 163 1
w 181 -163 0
w 182 181 164 0.101821
w 182 181 -164 0.128455
w 182 -181 164 0.185513
w 182 -181 -164 0.534277
w 183 182 165 0.877511
w 183 182 -165 0.403391
w 183 -182 165 0.207361
w 183 -182 -165 0.0149415
w 184 183 166 0.113803
w 184 183 -166 0.953643
w 184 -183 166 0.843509
w 184 -183 -166 0.621422
w 185 184 167 0.571896
w 185 184 -167 0.10585
w 185 -184 167 0.744183
w 185 -184 -167 0.883689
w 186 185 168 0.50662
w 186 185 -168 0.146691
w 186 -185 168 0.915239
w 186 -185 -168 0.903965
w 187 186 169 1
w 187 186 -169 0
w 187 -186 169 0
w 187 -186 -169 0
w 188 187 170 1
w 188 187 -170 1
w 188 -187 170 1
w 188 -187 -170 0
w 189 188 171 0.978931
w 189 188 -171 0.0496992
w 189 -188 171 0.742273
w 189 -188 -171 0.993872
w 190 189 172 0.856077
w 190 189 -172 0.947515
w 190 -189 172 0.566101
w 190 -189 -172 0.477498
w 191 190 173 0.137996
w 191 190 -173 0.583348
w 191 -190 173 0.485333
w 191 -190 -173 0.0216852
w 192 191 174 0.991954
w 192 191 -174 0.168376
w 192 -191 174 0.450864
w 192 -191 -174 0.895919
w 193 192 175 0.225132
w 193 192 -175 0.941433
w 193 -192 175 0.536262
w 193 -192 -175 0.235342
w 194 193 176 1
w 194 193 -176 0
w 194 -193 176 0
w 194 -193 -176 0
w 195 194 177 0.570514
w 195 194 -177 0.532518
w 195 -194 177 0.0433809
w 195 -194 -177 0.312787
w 196 195 178 0.765973
w 196 195 -178 0.168864
w 196 -195 178 0.473905
w 196 -195 -178 0.332073
w 197 196 179 0.215056
w 197 196 -179 0.47007
w 197 -196 179 0.22971
w 197 -196 -179 0.700389
w 198 197 180 1
w 198 197 -180 0
w 198 -197 180 0
w 198 -197 -180 0
w 199 181 0.250184
w 199 -181 0.441332
w 200 199 182 0.786447
w 200 199 -182 0.676674
w 200 -199 182 0.953985
w 200 -199 -182 0.238615
w 201 200 183 1
w 201 200 -183 0
w 201 -200 183 0
w 201 -200 -183 0
w 202 201 184 0
w 202 201 -184 0
w 202 -201 184 1
w 202 -201 -184 0
w 203 202 185 1
w 203 202 -185 0
w 203 -202 185 0
w 203 -202 -185 0
w 204 203 186 0.917822
w 204 203 -186 0.240462
w 204 -203 186 0.12098
w 204 -203 -186 0.683158
w 205 204 187 0.781111
w 205 204 -187 0.899357
w 205 -204 187 0.521067
w 205 -204 -187 0.0312953
w 206 205 188 0
w 206 205 -188 1
w 206 -205 188 1
w 206 -205 -188 1
w 207 206 189 0
w 207 206 -189 0
w 207 -206 189 1
w 207 -206 -189 0
w 208 207 190 0
w 208 207 -190 1
w 208 -207 190 1
w 208 -207 -190 1
w 209 208 191 0
w 209 208 -191 1
w 209 -208 191 1
w 209 -208 -191 0
w 210 209 192 0.0750036
w 210 209 -192 0.129947
w 210 -209 192 0.856692
w 210 -209 -192 0.758161
w 211 210 193 1
w 211 210 -193 1
w 211 -210 193 1
w 211 -210 -193 0
w 212 211 194 0.48684
w 212 211 -194 0.0155701
w 212 -211 194 0.639328
w 212 -211 -194 0.543197
w 213 212 195 0
w 213 212 -195 1
w 213 -212 195 0
w 213 -212 -195 1
w 214 213 196 0.236367
w 214 213 -196 0.615412
w 214 -213 196 0.589435
w 214 -213 -196 0.183698
w 215 214 197 0
w 215 214 -197 1
w 215 -214 197 1
w 215 -214 -197 0
w 216 215 198 1
w 216 215 -198 0
w 216 -215 198 0
w 216 -215 -198 0
w 217 199 0
w 217 -199 1
w 218 217 200 0.604848
w 218 217 -200 0.189488
w 218 -217 200 0.730553
w 218 -217 -200 0.239428
w 219 218 201 0.746123
w 219 218 -201 0.878756
w 219 -218 201 0.219525
w 219 -218 -201 0.803103
w 220 219 202 0.611283
w 220 219 -202 0.919222
w 220 -219 202 0.70051
w 220 -219 -202 0.176323
w 221 220 203 0
w 221 220 -203 0
w 221 -220 203 0
w 221 -220 -203 1
w 222 221 204 0.629471
w 222 221 -204 0.642065
w 222 -221 204 0.532935
w 222 -221 -204 0.655366
w 223 222 205 0.491213
w 223 222 -205 0.537954
w 223 -222 205 0.033558
w 223 -222 -205 0.512243
w 224 223 206 1
w 224 223 -206 0
w 224 -223 206 0
w 224 -223 -206 0
w 225 224 207 0
w 225 224 -207 0
w 225 -224 207 1
w 225 -224 -207 0
w 226 225 208 0
w 226 225 -208 1
w 226 -225 208 0
w 226 -225 -208 0
w 227 226 209 0.120495
w 227 226 -209 0.764123
w 227 -226 209 0.697047
w 227 -226 -209 0.459781
w 228 227 210 1
w 228 227 -210 1
w 228 -227 210 0
w 228 -227 -210 1
w 229 228 211 0.765321
w 229 228 -211 0.425799
w 229 -228 211 0.282572
w 229 -228 -211 0.798879
w 230 229 212 0.340915
w 230 229 -212 0.564783
w 230 -229 212 0.0551319
w 230 -229 -212 0.588747
w 231 230 213 0
w 231 230 -213 0
w 231 -230 213 1
w 231 -230 -213 0
w 232 231 214 0
w 232 231 -214 1
w 232 -231 214 1
w 232 -231 -214 1
w 233 232 215 1
w 233 232 -215 0
w 233 -232 215 1
w 233 -232 -215 1
w 234 233 216 0
w 234 233 -216 0
w 234 -233 216 0
w 234 -233 -216 1
w 235 217 0
w 235 -217 1
w 236 235 218 0
w 236 235 -218 1
w 236 -235 218 0
w 236 -235 -218 1
w 237 236 219 0.940789
w 237 236 -219 0.768278
w 237 -236 219 0.206751
w 237 -236 -219 0.453695
w 238 237 220 1
w 238 237 -220 1
w 238 -237 220 0
w 238 -237 -220 1
w 239 238 221 0.736013
w 239 238 -221 0.0911092
w 239 -238 221 0.864685
w 239 -238 -221 0.170917
w 240 239 222 0.904576
w 240 239 -222 0.0656029
w 240 -239 222 0.469514
w 240 -239 -222 0.346118
w 241 240 223 1
w 241 240 -223 1
w 241 -240 223 0
w 241 -240 -223 1
w 242 241 224 0.789222
w 242 241 -224 0.533199
w 242 -241 224 0.264141
w 242 -241 -224 0.141264
w 243 242 225 1
w 243 242 -225 1
w 243 -242 225 0
w 243 -242 -225 0
w 244 243 226 0.0806124
w 244 243 -226 0.119668
w 244 -243 226 0.646032
w 244 -243 -226 0.502215
w 245 244 227 1
w 245 244 -227 0
w 245 -244 227 1
w 245 -244 -227 0
w 246 245 228 1
w 246 245 -228 1
w 246 -245 228 1
w 246 -245 -228 0
w 247 246 229 0
w 247 246 -229 1
w 247 -246 229 0
w 247 -246 -229 0
w 248 247 230 0.0916043
w 248 247 -230 0.598344
w 248 -247 230 0.793809
w 248 -247 -230 0.232868
w 249 248 231 0.85305
w 249 248 -231 0.314921
w 249 -248 231 0.847095
w 249 -248 -231 0.119041
w 250 249 232 0.927707
w 250 249 -232 0.238709
w 250 -249 232 0.4967
w 250 -249 -232 0.429922
w 251 250 233 0.664572
w 251 250 -233 0.66815
w 251 -250 233 0.0657378
w 251 -250 -233 0.697128
w 252 251 234 1
w 252 251 -234 0
w 252 -251 234 1
w 252 -251 -234 1
w 253 235 0.0763292
w 253 -235 0.523687
w 254 253 236 0.378712
w 254 253 -236 0.588832
w 254 -253 236 0.452674
w 254 -253 -236 0.470316
w 255 254 237 0
w 255 254 -237 1
w 255 -254 237 0
w 255 -254 -237 0
w 256 255 238 0
w 256 255 -238 1
w 256 -255 238 1
w 256 -255 -238 1
w 257 256 239 1
w 257 256 -239 1
w 257 -256 239 1
w 257 -256 -239 0
w 258 257 240 0
w 258 257 -240 1
w 258 -257 240 0
w 258 -257 -240 1
w 259 258 241 0.202032
w 259 258 -241 0.278944
w 259 -258 241 0.604295
w 259 -258 -241 0.725719
w 260 259 242 0
w 260 259 -242 0
w 260 -259 242 0
w 260 -259 -242 1
w 261 260 243 0.901105
w 261 260 -243 0.156507
w 261 -260 243 0.527482
w 261 -260 -243 0.000636839
w 262 261 244 0
w 262 261 -244 0
w 262 -261 244 0
w 262 -261 -244 1
w 263 262 245 0.408859
w 263 262 -245 0.43137
w 263 -262 245 0.740443
w 263 -262 -245 0.438905
w 264 263 246 0
w 264 263 -246 1
w 264 -263 246 0
w 264 -263 -246 0
w 265 264 247 0.833889
w 265 264 -247 0.424708
w 265 -264 247 0.806456
w 265 -264 -247 0.438183
w 266 265 248 0
w 266 265 -248 1
w 266 -265 248 1
w 266 -265 -248 1
w 267 266 249 0.564133
w 267 266 -249 0.031019
w 267 -266 249 0.494185
w 267 -266 -249 0.56477
w 268 267 250 1
w 268 267 -250 0
w 268 -267 250 1
w 268 -267 -250 0
w 269 268 251 0
w 269 268 -251 0
w 269 -268 251 0
w 269 -268 -251 1
w 270 269 252 0.0710474
w 270 269 -252 0.262858
w 270 -269 252 0.1627
w 270 -269 -252 0.293724
w 271 253 0.996589
w 271 -253 0.718432
w 272 271 254 0.434772
w 272 271 -254 0.868859
w 272 -271 254 0.60523
w 272 -271 -254 0.855962
w 273 272 255 1
w 273 272 -255 1
w 273 -272 255 0
w 273 -272 -255 1
w 274 273 256 0.794725
w 274 273 -256 0.397161
w 274 -273 256 0.967124
w 274 -273 -256 0.689242
w 275 274 257 1
w 275 274 -257 0
w 275 -274 257 1
w 275 -274 -257 0
w 276 275 258 1
w 276 275 -258 1
w 276 -275 258 1
w 276 -275 -258 0
w 277 276 259 0
w 277 276 -259 1
w 277 -276 259 1
w 277 -276 -259 1
w 278 277 260 0.620847
w 278 277 -260 0.762264
w 278 -277 260 0.794592
w 278 -277 -260 0.226077
w 279 278 261 0.128429
w 279 278 -261 0.494335
w 279 -278 261 0.348701
w 279 -278 -261 0.428969
w 280 279 262 0
w 280 279 -262 0
w 280 -279 262 1
w 280 -279 -262 0
w 281 280 263 0.293459
w 281 280 -263 0.697585
w 281 -280 263 0.546641
w 281 -280 -263 0.167474
w 282 281 264 0
w 282 281 -264 0
w 282 -281 264 1
w 282 -281 -264 0
w 283 282 265 1
w 283 282 -265 1
w 283 -282 265 0
w 283 -282 -265 0
w 284 283 266 0
w 284 283 -266 1
w 284 -283 266 1
w 284 -283 -266 1
w 285 284 267 0
w 285 284 -267 1
w 285 -284 267 0
w 285 -284 -267 1
w 286 285 268 0
w 286 285 -268 1
w 286 -285 268 1
w 286 -285 -268 0
w 287 286 269 0.692842
w 287 286 -269 0.0457729
w 287 -286 269 0.621981
w 287 -286 -269 0.239483
w 288 287 270 1
w 288 287 -270 0
w 288 -287 270 0
w 288 -287 -270 0
w 289 271 0.723435
w 289 -271 0.316324
w 290 289 272 0
w 290 289 -272 1
w 290 -289 272 1
w 290 -289 -272 0
w 291 290 273 0.107593
w 291 290 -273 0.37903
w 291 -290 273 0.965906
w 291 -290 -273 0.466391
w 292 291 274 0
w 292 291 -274 1
w 292 -291 274 0
w 292 -291 -274 0
w 293 292 275 1
w 293 292 -275 1
w 293 -292 275 0
w 293 -292 -275 0
w 294 293 276 1
w 294 293 -276 1
w 294 -293 276 0
w 294 -293 -276 1
w 295 294 277 0.56855
w 295 294 -277 0.251196
w 295 -294 277 0.460347
w 295 -294 -277 0.291986
w 296 295 278 0.901792
w 296 295 -278 0.411363
w 296 -295 278 0.719453
w 296 -295 -278 0.779015
w 297 296 279 0.469259
w 297 296 -279 0.886607
w 297 -296 279 0.926558
w 297 -296 -279 0.435164
w 298 297 280 1
w 298 297 -280 0
w 298 -297 280 1
w 298 -297 -280 1
w 299 298 281 1
w 299 298 -281 1
w 299 -298 281 0
w 299 -298 -281 1
w 300 299 282 0.133377
w 300 299 -282 0.874787
w 300 -299 282 0.752021
w 300 -299 -282 0.350412
w 301 300 283 0
w 301 300 -283 0
w 301 -300 283 1
w 301 -300 -283 0
w 302 301 284 0
w 302 301 -284 0
w 302 -301 284 0
w 302 -301 -284 1
w 303 302 285 0
w 303 302 -285 0
w 303 -302 285 0
w 303 -302 -285 1
w 304 303 286 0.661729
w 304 303 -286 0.139185
w 304 -303 286 0.726239
w 304 -303 -286 0.268885
w 305 304 287 0
w 305 304 -287 0
w 305 -304 287 1
w 305 -304 -287 0
w 306 305 288 1
w 306 305 -288 1
w 306 -305 288 0
w 306 -305 -288 0
w 307 289 0
w 307 -289 1
w 308 307 290 0
w 308 307 -290 0
w 308 -307 290 0
w 308 -307 -290 1
w 309 308 291 0.263412
w 309 308 -291 0.958424
w 309 -308 291 0.244308
w 309 -308 -291 0.433251
w 310 309 292 1
w 310 309 -292 1
w 310 -309 292 0
w 310 -309 -292 1
w 311 310 293 0.770236
w 311 310 -293 0.483652
w 311 -310 293 0.0309637
w 311 -310 -293 0.668047
w 312 311 294 0.584008
w 312 311 -294 0.695448
w 312 -311 294 0.829763
w 312 -311 -294 0.988779
w 313 312 295 0.909
w 313 312 -295 0.145571
w 313 -312 295 0.367414
w 313 -312 -295 0.306014
w 314 313 296 0.797566
w 314 313 -296 0.272
w 314 -313 296 0.762408
w 314 -313 -296 0.438667
w 315 314 297 1
w 315 314 -297 0
w 315 -314 297 0
w 315 -314 -297 0
w 316 315 298 0
w 316 315 -298 0
w 316 -315 298 0
w 316 -315 -298 1
w 317 316 299 0.333811
w 317 316 -299 0.430763
w 317 -316 299 0.0803595
w 317 -316 -299 0.364775
w 318 317 300 1
w 318 317 -300 0
w 318 -317 300 1
w 318 -317 -300 0
w 319 318 301 0.650482
w 319 318 -301 0.444435
w 319 -318 301 0.0831329
w 319 -318 -301 0.0178964
w 320 319 302 0.666464
w 320 319 -302 0.815462
w 320 -319 302 0.022449
w 320 -319 -302 0.428872
w 321 320 303 1
w 321 320 -303 1
w 321 -320 303 0
w 321 -320 -303 1
w 322 321 304 0
w 322 321 -304 0
w 322 -321 304 0
w 322 -321 -304 1
w 323 322 305 0.0903255
w 323 322 -305 0.437653
w 323 -322 305 0.901372
w 323 -322 -305 0.4551
w 324 323 306 0.607044
w 324 323 -306 0.403883
w 324 -323 306 0.330722
w 324 -323 -306 0.142479